sing20211125.12
TTAA  75121 48698
99005 29857 29506 00080 29257 21008 92768 23218 24504
85505 18656 27010 70148 10444 27502 50588 04140 10504
40761 13159 10514 30973 29156 08019 25101 39756 06025
20249 52168 06037 15429 67962 07051 10661 77360 12029
88105 82757 10047
77999=
TTCC  75113 48698
70863 71364 12008 50065 69973 33029 30373 64583 09047
88806 83557 22006
66252 10060 41900=
TTDD  7511/ 48698
11806 83557 22757 83957 33718 77959 44701 71764 55664 67565
66537 67773 77447 71973 88421 67377 99367 63979 11313 67182
22273 55785 33252 55592
21212 11943 14518 22890 20004 33860 20002 44823 24004 55789
18510 66696 11506 77690 14004 88681 24004 99649 27019 11609
26023 22546 32021 33478 33521 44451 00518 55429 08018 66416
09527 77366 07541 88338 09041 99280 08551 11252 10060=
